************************************************************************
file with basedata            : j9032_.bas
initial value random generator: 1714946234
************************************************************************
projects                      :  1
jobs (incl. supersource/sink ):  92
horizon                       :  513
RESOURCES
  - renewable                 :  4   R
  - nonrenewable              :  0   N
  - doubly constrained        :  0   D
************************************************************************
PROJECT INFORMATION:
pronr.  #jobs rel.date duedate tardcost  MPM-Time
    1     90      0       95       61       95
************************************************************************
PRECEDENCE RELATIONS:
jobnr.    #modes  #successors   successors
   1        1          3           2   3   4
   2        1          2           6  13
   3        1          3          10  11  14
   4        1          3           5  38  83
   5        1          3           8   9  18
   6        1          3           7  16  20
   7        1          1          35
   8        1          3          46  66  71
   9        1          3          30  43  52
  10        1          2          19  33
  11        1          3          12  17  68
  12        1          2          42  45
  13        1          3          15  29  48
  14        1          2          22  24
  15        1          3          24  27  45
  16        1          3          25  41  57
  17        1          1          61
  18        1          3          21  23  26
  19        1          2          21  37
  20        1          1          52
  21        1          1          47
  22        1          3          36  54  77
  23        1          3          25  39  60
  24        1          3          28  53  72
  25        1          2          43  91
  26        1          3          39  41  62
  27        1          2          31  63
  28        1          3          54  67  81
  29        1          3          32  40  44
  30        1          2          39  71
  31        1          3          36  47  66
  32        1          2          34  53
  33        1          2          34  76
  34        1          3          58  78  84
  35        1          1          89
  36        1          2          51  55
  37        1          2          58  87
  38        1          1          55
  39        1          3          64  70  79
  40        1          1          77
  41        1          2          49  85
  42        1          3          50  72  78
  43        1          1          89
  44        1          1          83
  45        1          2          56  76
  46        1          1          62
  47        1          1          50
  48        1          1          60
  49        1          1          64
  50        1          2          65  88
  51        1          1          69
  52        1          1          55
  53        1          3          59  64  69
  54        1          2          68  69
  55        1          1          87
  56        1          1          80
  57        1          2          75  80
  58        1          1          65
  59        1          1          70
  60        1          2          61  62
  61        1          2          79  84
  62        1          1          72
  63        1          2          65  68
  64        1          2          80  88
  65        1          1          74
  66        1          3          67  74  87
  67        1          1          70
  68        1          1          89
  69        1          2          71  73
  70        1          2          82  84
  71        1          2          79  88
  72        1          2          74  76
  73        1          2          75  90
  74        1          2          77  81
  75        1          1          78
  76        1          1          81
  77        1          1          82
  78        1          1          83
  79        1          1          82
  80        1          1          86
  81        1          1          85
  82        1          1          86
  83        1          1          85
  84        1          1          91
  85        1          1          86
  86        1          1          91
  87        1          1          90
  88        1          1          90
  89        1          1          92
  90        1          1          92
  91        1          1          92
  92        1          0        
************************************************************************
REQUESTS/DURATIONS:
jobnr. mode duration  R 1  R 2  R 3  R 4
------------------------------------------------------------------------
  1      1     0       0    0    0    0
  2      1     6       9    6    3    7
  3      1     9       5    4    9    4
  4      1     2       5    2   10    7
  5      1     8       4    5    5    1
  6      1     8       7    7   10    7
  7      1     5       2    6    9    3
  8      1     6       9    7    2    3
  9      1     7       3    8    1    6
 10      1     7       8    3    5    3
 11      1     8       9    6    6    6
 12      1     8       3    4    8    3
 13      1     3       3    2    5    7
 14      1     8       2    2    3    8
 15      1     1       3    4    5   10
 16      1    10       5    7    9    4
 17      1     3       5    4    9    4
 18      1     5       2    9    9    1
 19      1     1       9   10    5    8
 20      1     1       5    9    2   10
 21      1     3       5    6    9    5
 22      1     4       2    6    5   10
 23      1     6      10    7    3    9
 24      1     3       6    9    1   10
 25      1     5       5    1    3    9
 26      1     3       4    6    9    6
 27      1     1       7   10    8    1
 28      1     5      10    4    2    6
 29      1     4      10    5   10    1
 30      1    10       7    3    6    4
 31      1     6       4    4    8    7
 32      1     4       4    3    8    7
 33      1     8       8    5    8    6
 34      1     1       4    5    9    8
 35      1     7      10    3    4    8
 36      1     4       3    3    7    8
 37      1     3       4   10    2   10
 38      1     9       4    4    9    8
 39      1     8       6    7   10    2
 40      1     1       1    5    4    1
 41      1     7       5    2    2    3
 42      1     9       2    3    2    3
 43      1     5       6    5    8    7
 44      1     7       8   10    7    3
 45      1     7       7    9    3    9
 46      1     6       5    2    2    7
 47      1    10      10    9    2    6
 48      1     7       9    5    9    2
 49      1    10       3    9    5    5
 50      1     3       3    5   10    8
 51      1    10      10    8    9    2
 52      1     6       4    6    3    9
 53      1     9       4    8    4    1
 54      1     7      10    5    8    3
 55      1     2      10    8    1   10
 56      1     4       1    2    7    3
 57      1     2       5    2    7    5
 58      1     6       2    7    3    4
 59      1    10       2    7    1    8
 60      1     7       9    7    2    1
 61      1     7       8    7    7    3
 62      1     2      10    9    8   10
 63      1     4       1    3    9    1
 64      1     9       9    9    2   10
 65      1     4       7    6    7    2
 66      1     8       6    8    6   10
 67      1     5       4    4    8    3
 68      1     8       5    5    3    1
 69      1     9       1    6    2    4
 70      1     6       7    1    7    2
 71      1     9       5    6    8    1
 72      1     1       6    9    8    6
 73      1     7       3    6    3    9
 74      1     2       3    4    2    3
 75      1     8       1    2    5    5
 76      1    10       6    4   10    2
 77      1     5       8    3    2    6
 78      1    10       8    4    7    8
 79      1     5       9    5    8    6
 80      1     1       6    2    8    7
 81      1     4       2    6    6    4
 82      1     2       8    9    4    8
 83      1     1       4    4    9    3
 84      1     8       4    6    1    8
 85      1    10       8    6    1    4
 86      1     7       5    5    2    8
 87      1     4       2    4    7    5
 88      1     3       7   10    9    9
 89      1     9      10    9    6    5
 90      1     2       6    3    6    7
 91      1     8      10    9    8    9
 92      1     0       0    0    0    0
************************************************************************
RESOURCEAVAILABILITIES:
  R 1  R 2  R 3  R 4
  100   99   96  103
************************************************************************
